2 15
502 691 
0 39 47 58 65 45 70 1
1 74 75 1 10 54 22 1
2 16 21 101 92 42 17 2
3 98 90 36 45 50 5 1
4 26 31 72 74 25 57 1
5 69 65 16 19 20 54 2
6 5 8 34 35 89 52 2
7 81 79 19 17 16 26 1
8 14 8 70 75 80 16 1
9 16 9 67 64 83 60 1
10 30 35 87 81 29 91 2
11 17 14 31 25 84 4 1
12 46 51 95 94 45 68 1
13 50 55 92 94 88 89 2
14 50 40 67 74 68 2 1
